Instance/dc749daf2fb04260ab424bf7cb635af7-pulp.mps
*SENSE:Minimize
NAME          MODEL
ROWS
 N  OBJ
 E  C0000000
 E  C0000001
 E  C0000002
 E  C0000003
 E  C0000004
 E  C0000005
 E  C0000006
 E  C0000007
 E  C0000008
 E  C0000009
 E  C0000010
 E  C0000011
 E  C0000012
COLUMNS
    X0000000  C0000000  -9.846194661360e-01
    X0000000  C0000001   1.003170560929e-01
    X0000000  C0000002   3.870480479618e-01
    X0000000  C0000003   2.440929000020e-01
    X0000000  C0000006   3.720430762209e-01
    X0000000  C0000009   1.000000000000e+00
    X0000000  C0000012   1.000000000000e+00
    X0000001  C0000000   1.538053386399e-02
    X0000001  C0000001  -8.996829439071e-01
    X0000001  C0000002   3.870480479618e-01
    X0000001  C0000004   1.224736076416e-02
    X0000001  C0000007   5.348962834821e-01
    X0000001  C0000012   1.000000000000e+00
    X0000002  C0000000   1.538053386399e-02
    X0000002  C0000001   1.003170560929e-01
    X0000002  C0000002  -6.129519520382e-01
    X0000002  C0000005   4.481438100275e-02
    X0000002  C0000008   6.217463604323e-01
    X0000002  C0000012   1.000000000000e+00
    X0000003  C0000000   1.538053386399e-02
    X0000003  C0000003  -7.559070999980e-01
    X0000003  C0000004   1.224736076416e-02
    X0000003  C0000005   4.481438100275e-02
    X0000003  C0000006   3.720430762209e-01
    X0000003  C0000012   1.000000000000e+00
    X0000004  C0000001   1.003170560929e-01
    X0000004  C0000003   2.440929000020e-01
    X0000004  C0000004  -9.877526392358e-01
    X0000004  C0000005   4.481438100275e-02
    X0000004  C0000007   5.348962834821e-01
    X0000004  C0000010   1.000000000000e+00
    X0000004  C0000012   1.000000000000e+00
    X0000005  C0000002   3.870480479618e-01
    X0000005  C0000003   2.440929000020e-01
    X0000005  C0000004   1.224736076416e-02
    X0000005  C0000005  -9.551856189973e-01
    X0000005  C0000008   6.217463604323e-01
    X0000005  C0000012   1.000000000000e+00
    X0000006  C0000000   1.538053386399e-02
    X0000006  C0000003   2.440929000020e-01
    X0000006  C0000006  -6.279569237791e-01
    X0000006  C0000007   5.348962834821e-01
    X0000006  C0000008   6.217463604323e-01
    X0000006  C0000012   1.000000000000e+00
    X0000007  C0000001   1.003170560929e-01
    X0000007  C0000004   1.224736076416e-02
    X0000007  C0000006   3.720430762209e-01
    X0000007  C0000007  -4.651037165179e-01
    X0000007  C0000008   6.217463604323e-01
    X0000007  C0000012   1.000000000000e+00
    X0000008  C0000002   3.870480479618e-01
    X0000008  C0000005   4.481438100275e-02
    X0000008  C0000006   3.720430762209e-01
    X0000008  C0000007   5.348962834821e-01
    X0000008  C0000008  -3.782536395677e-01
    X0000008  C0000011   1.000000000000e+00
    X0000008  C0000012   1.000000000000e+00
    X0000009  OBJ        1.000000000000e+00
RHS
    RHS       C0000000   0.000000000000e+00
    RHS       C0000001   0.000000000000e+00
    RHS       C0000002   0.000000000000e+00
    RHS       C0000003   0.000000000000e+00
    RHS       C0000004   0.000000000000e+00
    RHS       C0000005   0.000000000000e+00
    RHS       C0000006   0.000000000000e+00
    RHS       C0000007   0.000000000000e+00
    RHS       C0000008   0.000000000000e+00
    RHS       C0000009   0.000000000000e+00
    RHS       C0000010   0.000000000000e+00
    RHS       C0000011   0.000000000000e+00
    RHS       C0000012   1.000000000000e+00
BOUNDS
 UP BND       X0000000   1.000000000000e+00
 UP BND       X0000001   1.000000000000e+00
 UP BND       X0000002   1.000000000000e+00
 UP BND       X0000003   1.000000000000e+00
 UP BND       X0000004   1.000000000000e+00
 UP BND       X0000005   1.000000000000e+00
 UP BND       X0000006   1.000000000000e+00
 UP BND       X0000007   1.000000000000e+00
 UP BND       X0000008   1.000000000000e+00
 FX BND       X0000009   0.000000000000e+00
ENDATA
