Instance/dc749daf2fb04260ab424bf7cb635af7-pulp.sol
Infeasible - objective value 0.00000000
**       0 C0000000    -0.044377197                       0
**       1 C0000001       1.8317757                       0
**       2 C0000002      -5.5636532                       0
      3 C0000003               0                       0
**       4 C0000004      -19.678803                       0
**       5 C0000005      0.43672085                       0
      6 C0000006               0                       0
      7 C0000007               0                       0
      8 C0000008               0                       0
      9 C0000009               0         -8.2747264e-011
**      10 C0000010       19.953464                       0
**      11 C0000011       -14.37458                       0
     12 C0000012               1          1.0267349e-009
      0 X0000000               0                       0
      1 X0000001               0         -4.3813415e-010
      2 X0000002               0         -1.1780879e-010
**       3 X0000003       4.1662216                       0
**       4 X0000004       19.953464                       0
      5 X0000005               0         -1.8645971e-010
**       6 X0000006      -7.0515049                       0
**       7 X0000007      -1.6936002                       0
**       8 X0000008       -14.37458                       0
      9 X0000009               0                       1
